#pLT is two-dimensional [i,r]=[component, individual]
#[i,*] means all data in row i.

param pLT := 
[1,*]
1  0    2  6    3  5    4  7    5  7    6  7    7  8    8  8    9  7    10 7    
11 7    12 4    

[2,*]
1  1    2  3    3  4    4  4    5  4    6  4    7  4    8  4    9  4    10 4    
11 2    12 3    

[3,*]
1  1    2  3    3  3    4  3    5  3    6  3    7  3    8  3    9  3    10 2    
11 2    12 2    

[4,*]
1  1    2  3    3  3    4  3    5  3    6  2    7  3    8  2    9  1    10 2    
11 2    12 3    

[5,*]
1  1    2  2    3  2    4  2    5  2    6  2    7  2    8  1    9  1    10 1    
11 2    12 1    

[6,*]
1  3    2  5    3  5    4  4    5  4    6  4    7  2    8  3    9  3    10 5    
11 2    12 4    

[7,*]
1  5    2  7    3  6    4  6    5  6    6  4    7  5    8  5    9  7    10 3    
11 6    12 5    

[8,*]
1  1    2  1    3  2    4  1    5  1    6  1    7  1    8  2    9  1    10 1    
11 1    12 1    

[9,*]
1  1    2  2    3  2    4  1    5  1    6  1    7  2    8  1    9  2    10 1    
11 1    12 2    

[10,*]
1  1    2  1    3  1    4  1    5  1    6  1    7  1    8  1    9  1    10 1    
11 1    12 1    
;